(set-info :status unknown)
(declare-fun C () (_ BitVec 20))
(declare-fun %x () (_ BitVec 19))
(declare-fun |ana_WillNotOverflowSignedAdd(%x, trunc(C))| () (_ BitVec 1))
(declare-fun u_%sx () (_ BitVec 8))
(assert
 (let ((?x9797 ((_ sign_extend 1) (bvadd %x ((_ extract 18 0) C)))))
 (let (($x8920 (= |ana_WillNotOverflowSignedAdd(%x, trunc(C))| (_ bv1 1))))
 (let (($x3624 (=> $x8920 (= (bvadd ((_ sign_extend 1) %x) ((_ sign_extend 1) ((_ extract 18 0) C))) ?x9797))))
 (and $x3624 (= u_%sx (_ bv1 8)) $x8920 (= (bvand C (bvshl (_ bv1048575 20) (bvsub (_ bv19 20) (_ bv1 20)))) (_ bv0 20)) (and (distinct (bvadd ((_ sign_extend 1) %x) C) ?x9797) true))))))
(check-sat)
